
Gurobi 9.5.0 (win64) logging started Tue Jun  7 18:04:19 2022

Set parameter LogFile to value "C:\Users\kmajd1\Documents\NNRepLayer_v2\demos\examples\tc7_walking_example\v2\repair_bound_constraint\repair_net/logs/opt_log_6_7_2022_18_4_0.log"
Gurobi Optimizer version 9.5.0 build v9.5.0rc5 (win64)
Thread count: 8 physical cores, 16 logical processors, using up to 16 threads
Optimize a model with 366 rows, 134 columns and 1228 nonzeros
Model fingerprint: 0xa308fe66
Model has 101 quadratic objective terms
Coefficient statistics:
  Matrix range     [6e-03, 1e+01]
  Objective range  [9e-04, 4e-01]
  QObjective range [2e-02, 2e+00]
  Bounds range     [1e+01, 4e+01]
  RHS range        [8e-04, 2e+01]
Presolve removed 213 rows and 7 columns
Presolve time: 0.01s
Presolved: 153 rows, 127 columns, 1010 nonzeros
Presolved model has 101 quadratic objective terms
Ordering time: 0.00s

Barrier statistics:
 Dense cols : 9
 AA' NZ     : 1.861e+03
 Factor NZ  : 2.428e+03
 Factor Ops : 5.230e+04 (less than 1 second per iteration)
 Threads    : 1

                  Objective                Residual
Iter       Primal          Dual         Primal    Dual     Compl     Time
   0   1.62494792e+07 -1.72864294e+07  4.81e+03 4.04e+02  8.70e+05     0s
   1   6.58984291e+06 -7.77833682e+06  2.97e+03 2.50e+02  5.85e+05     0s
   2   1.92551613e+04 -1.99293832e+06  1.66e+02 1.40e+01  5.18e+04     0s
   3   1.06711479e+02 -1.71488718e+06  1.66e-04 1.40e-05  5.57e+03     0s
   4   1.06447762e+02 -2.52676335e+03  8.91e-08 7.48e-09  8.55e+00     0s
   5   3.62786644e+01 -1.37142227e+02  2.52e-09 2.11e-10  5.63e-01     0s
   6   5.26158055e+00 -1.31688901e+01  1.78e-14 5.11e-15  5.98e-02     0s
   7   1.78326162e+00  3.92392711e-01  1.21e-13 8.88e-16  4.52e-03     0s
   8   1.34614491e+00  1.19630006e+00  4.25e-12 2.05e-15  4.87e-04     0s
   9   1.31348726e+00  1.29130458e+00  6.23e-11 4.10e-15  7.20e-05     0s
  10   1.30948686e+00  1.30819370e+00  7.84e-12 1.27e-15  4.20e-06     0s
  11   1.30925681e+00  1.30914102e+00  1.15e-11 4.44e-16  3.76e-07     0s
  12   1.30923802e+00  1.30923739e+00  9.54e-12 4.44e-16  2.02e-09     0s

Barrier solved model in 12 iterations and 0.04 seconds (0.00 work units)
Optimal objective 1.30923802e+00

